amountOfDepartureSegments = 8;
amountOfReturnSegments = 5;
departurePricesOptions = 4;
returnPricesOptions = 2;
maxAmountOfDepartureSegments = 2;
maxAmountOfReturnSegmentsOptions = 2;
amountOfLodgings = 6;
maxAmountOfFeatures = 14;
maxPrice = 100000;
maxStops = 2;
maxStopsDuration = 700;
maxTotalDuration = 1000;
allowAerolines = [0,1,2,3,4,5,6,7];
allowIntermediaries = true;
timeWindowStartHours = [0];
timeWindowStartMinutes = [0];
timeWindowEndHours = [23];
timeWindowEndMinutes = [59];
beedrooms = 1;
beds = 2;
bathrooms = 1;
isSuperHost = true;
allowPolicies = [0,1];
features = [];
departureSegmentsId = ["10597-2307012231--32748,-31897-1-16807-2307020721","10597-2307010600--31897-0-16807-2307010710","10597-2307010600--32540-0-16807-2307010715","10597-2307010600--32357-0-16807-2307010715","10597-2307010901--32540,-31897-1-16807-2307011401","10597-2307010933--32115,-31897-1-16807-2307011401","10597-2307011635--31897-0-16807-2307011745","10597-2307012245--32115,-31897-1-16807-2307020721"];
departureSegmentsDuration = [530,70,75,75,300,268,70,516];
departureSegmentsStops = [1,0,0,0,1,1,0,1];
departureLegsDeparturesHours = [|22,5|6,-1|6,-1|6,-1|9,12|9,12|16,-1|22,5|];
departureLegsDeparturesMinutes = [|31,30|0,-1|0,-1|0,-1|1,10|33,10|35,-1|45,30|];
departureLegsArrivalsHours = [|23,7|7,-1|7,-1|7,-1|10,14|10,14|17,-1|23,7|];
departureLegsArrivalsMinutes = [|30,21|10,-1|15,-1|15,-1|5,1|32,1|45,-1|45,21|];
departureLegsDepartures = [|182,182|181,-1|181,-1|
181,-1|181,181|181,181|
181,-1|182,182|];
departureLegsArrivals = [|182,182|181,-1|181,-1|
181,-1|181,181|181,181|
181,-1|182,182|];
departureLegsDuration = [|59,111|70,-1|75,-1|75,-1|64,111|59,111|70,-1|60,111|];
departureLegsAeroline = [|7,4|4,-1|0,-1|2,-1|0,4|3,4|4,-1|3,4|];
departureSegmentsPrices = [|56100,-1,-1,-1|27200,-1,-1,-1|
26197,26197,26573,27700|27700,0,-1,-1|
69200,-1,-1,-1|53200,-1,-1,-1|
23700,-1,-1,-1|61400,-1,-1,-1|];
departureSegmentsPricesAgents = [|13,-1,-1,-1|13,-1,-1,-1|15,12,8,13|
13,2,-1,-1|13,-1,-1,-1|13,-1,-1,-1|
13,-1,-1,-1|13,-1,-1,-1|];
departureSegmentsPricesIsCarrier = [|0,-1,-1,-1|0,-1,-1,-1|0,0,0,0|
0,1,-1,-1|0,-1,-1,-1|0,-1,-1,-1|
0,-1,-1,-1|0,-1,-1,-1|];
departureSegmentsAgentsScore = [|298,-1,-1,-1|
298,-1,-1,-1|
303,260,352,298|
298,-1,-1,-1|
298,-1,-1,-1|
298,-1,-1,-1|
298,-1,-1,-1|
298,-1,-1,-1|];
returnSegmentsId = ["16807-2307021830--32357-0-10597-2307021935","16807-2307021830--32540-0-10597-2307021935","16807-2307020745--31897-0-10597-2307020846","16807-2307020825--31897,-32540-1-10597-2307021347","16807-2307020825--31897,-32115-1-10597-2307021306"];
returnSegmentsDuration = [65,65,61,322,281];
returnSegmentsStops = [0,0,0,1,1];
returnLegsDeparturesHours = [|18,-1|18,-1|7,-1|8,12|8,12|];
returnLegsDeparturesMinutes = [|30,-1|30,-1|45,-1|25,42|25,2|];
returnLegsArrivalsHours = [|19,-1|19,-1|8,-1|10,13|10,13|];
returnLegsArrivalsMinutes = [|35,-1|35,-1|46,-1|20,47|20,6|];
returnLegsDepartures = [|182,-1|182,-1|182,-1|
182,182|182,182|];
returnLegsArrivals = [|183,-1|183,-1|182,-1|
182,182|182,182|];
returnLegsDuration = [|65,-1|65,-1|61,-1|115,65|115,64|];
returnLegsAeroline = [|2,-1|0,-1|4,-1|4,0|4,3|];
returnSegmentsPrices = [|26000,0|27100,-1|
33700,-1|43300,-1|
43700,-1|];
returnSegmentsPricesAgents = [|13,2|13,-1|13,-1|
13,-1|13,-1|];
returnSegmentsPricesIsCarrier = [|0,1|0,-1|0,-1|
0,-1|0,-1|];
returnSegmentsAgentsScore = [|298,-1|
298,-1|
298,-1|
298,-1|
298,-1|];
lodgingsId = ["730551195083511302","781253233880019031","726840749004812551","751474071975862377","726860073262678984","751370012502708194"];
lodgingsStartDate = [181,181,181,181,181,181];
lodgingsEndDate = [182,182,182,182,182,182];
lodgingsPeople = [4,6,3,4,4,4];
lodgingsBathrooms = [2,2,1,1,1,1];
lodgingsBedrooms = [2,2,14,14,14,14];
lodgingsBeds = [2,3,2,2,2,2];
lodgingsIsSuperhost = [false,true,false,false,false,false];
lodgingsRating = [500,483,-1,-1,-1,-1];
lodgingsFeatures = [|4,5,8,11,12,33,34,44,46,47,-1,-1,-1,-1|
4,5,7,8,9,12,33,35,47,-1,-1,-1,-1,-1|
64,33,34,35,4,36,5,9,41,44,46,47,25,27|
64,33,34,35,4,36,5,9,41,44,46,47,25,-1|
64,33,34,35,4,36,5,9,41,44,46,47,27,-1|
64,33,34,35,4,36,5,9,41,44,46,47,25,-1|];
lodgingsCancelPolicy = [1,1,2,2,2,2];
lodgingsPriceTotalAmount = [5500,5100,5400,6200,6500,7500];
